<number of tasks>
58

<cycle time>
92

<task times>
1 10
2 53
3 41
4 36
5 35
6 17
7 34
8 23
9 14
10 52
11 33
12 34
13 12
14 52
15 12
16 33
17 44
18 7
19 15
20 13
21 29
22 37
23 43
24 23
25 24
26 9
27 16
28 12
29 26
30 22
31 51
32 47
33 34
34 23
35 12
36 52
37 12
38 33
39 44
40 7
41 15
42 13
43 29
44 37
45 43
46 23
47 24
48 9
49 16
50 12
51 26
52 12
53 52
54 12
55 33
56 44
57 7
58 15

<precedence relations>
1,9
2,25
3,21
3,22
4,10
5,36
6,23
6,24
7,43
8,44
9,11
11,13
11,14
11,15
12,17
13,17
14,17
15,17
16,18
17,20
18,19
19,23
20,21
20,25
21,26
21,44
22,27
23,31
24,31
25,38
26,29
27,30
28,32
28,33
29,31
30,34
31,36
32,45
33,35
34,36
35,43
36,37
36,38
37,39
37,40
37,41
38,52
39,43
40,43
41,42
42,43
43,45
44,45
45,46
45,48
45,49
46,47
46,50
47,51
48,55
49,58
50,58
51,52
52,53
53,54
54,55
54,56
55,57
56,57
57,58

<setup times forward>
1,3:10
1,4:7
1,5:3
1,7:6
1,8:3
1,9:10
1,10:9
1,12:3
1,16:2
1,18:2
1,19:6
1,22:10
1,23:6
1,24:1
1,27:9
1,30:9
1,32:4
1,33:5
1,34:5
1,35:2
2,3:10
2,4:7
2,5:3
2,7:6
2,8:3
2,9:10
2,10:9
2,11:4
2,12:3
2,13:1
2,14:2
2,15:4
2,16:2
2,17:1
2,18:2
2,19:6
2,20:1
2,21:9
2,22:10
2,23:6
2,24:1
2,25:9
2,26:5
2,27:9
2,29:5
2,30:9
2,31:4
2,32:4
2,33:5
2,34:5
2,35:2
2,36:12
2,37:12
2,39:2
2,40:2
2,41:12
2,42:12
2,43:2
2,44:4
2,45:3
2,46:7
2,47:7
2,48:7
2,49:3
2,50:9
2,51:14
3,1:10
3,2:10
3,4:3
3,5:7
3,6:10
3,7:16
3,8:7
3,10:1
3,11:14
3,12:7
3,13:11
3,14:8
3,15:14
3,16:8
3,17:11
3,18:8
3,19:16
3,20:11
3,21:19
3,23:16
3,24:11
3,25:19
3,28:10
3,32:14
3,33:5
3,35:12
4,1:7
4,2:7
4,3:3
4,5:4
4,6:7
4,7:13
4,8:4
4,9:3
4,10:2
4,11:11
4,12:4
4,13:8
4,14:5
4,15:11
4,16:5
4,17:8
4,18:5
4,19:13
4,20:8
4,21:16
4,22:3
4,23:13
4,24:8
4,25:16
4,26:2
4,27:16
4,28:7
4,29:2
4,30:16
4,31:11
4,32:11
4,33:2
4,34:2
4,35:9
4,36:19
4,37:19
4,38:4
4,39:9
4,40:9
4,41:19
4,42:19
4,43:9
4,44:11
4,45:4
4,49:4
4,50:2
4,51:21
4,52:21
4,53:21
4,54:19
4,55:19
4,56:19
4,57:2
4,58:2
5,1:3
5,2:3
5,3:7
5,4:4
5,6:3
5,7:9
5,9:7
5,10:6
5,11:7
5,13:4
5,14:1
5,15:7
5,16:1
5,17:4
5,18:1
5,19:9
5,20:4
5,21:12
5,22:7
5,23:9
5,24:4
5,25:12
5,26:2
5,27:12
5,28:3
5,29:2
5,30:12
5,31:7
5,32:7
5,33:2
5,34:2
5,35:5
5,36:15
5,44:7
6,3:10
6,4:7
6,5:3
6,7:6
6,8:3
6,9:10
6,10:9
6,11:4
6,12:3
6,13:1
6,14:2
6,15:4
6,16:2
6,17:1
6,18:2
6,19:6
6,20:1
6,21:9
6,22:10
6,23:6
6,24:1
6,25:9
6,26:5
6,27:9
6,29:5
6,30:9
6,32:4
6,33:5
6,34:5
6,35:2
6,44:4
7,1:6
7,2:6
7,3:16
7,4:13
7,5:9
7,6:6
7,8:9
7,9:16
7,10:15
7,11:2
7,12:9
7,13:5
7,14:8
7,15:2
7,16:8
7,17:5
7,18:8
7,20:5
7,21:3
7,22:16
7,24:5
7,25:3
7,26:11
7,27:3
7,28:6
7,29:11
7,30:3
7,31:2
7,32:2
7,33:11
7,34:11
7,35:4
7,36:6
7,37:6
7,38:9
7,39:4
7,40:4
7,41:6
7,42:6
7,43:4
7,44:2
8,1:3
8,2:3
8,3:7
8,4:4
8,6:3
8,7:9
8,9:7
8,10:6
8,11:7
8,13:4
8,14:1
8,15:7
8,16:1
8,17:4
8,18:1
8,19:9
8,20:4
8,21:12
8,22:7
8,23:9
8,24:4
8,25:12
8,26:2
8,27:12
8,28:3
8,29:2
8,30:12
8,31:7
8,32:7
8,33:2
8,34:2
8,35:5
8,36:15
8,37:15
8,39:5
8,40:5
8,41:15
8,42:15
8,43:5
8,44:7
9,2:10
9,4:3
9,5:7
9,6:10
9,7:16
9,8:7
9,10:1
9,11:14
9,12:7
9,16:8
9,18:8
9,19:16
9,23:16
9,24:11
9,27:19
9,28:10
9,30:19
9,32:14
9,33:5
9,34:5
9,35:12
10,1:9
10,2:9
10,3:1
10,5:6
10,6:9
10,7:15
10,8:6
10,9:1
10,11:13
10,12:6
10,13:10
10,14:7
10,15:13
10,16:7
10,17:10
10,18:7
10,19:15
10,20:10
10,21:18
10,22:1
10,23:15
10,24:10
10,25:18
10,26:4
10,27:18
10,28:9
10,29:4
10,30:18
10,31:13
10,32:13
10,33:4
10,34:4
10,35:11
10,36:21
10,37:21
10,38:6
10,39:11
10,40:11
10,41:21
10,42:21
10,43:11
10,44:13
10,45:6
10,46:2
10,47:2
10,48:2
10,49:6
10,51:23
10,52:23
10,53:23
10,54:21
10,55:21
10,56:21
11,2:4
11,3:14
11,4:11
11,5:7
11,6:4
11,7:2
11,8:7
11,10:13
11,12:7
11,13:3
11,14:6
11,16:6
11,18:6
11,19:2
11,22:14
11,23:2
11,24:3
11,27:5
11,28:4
11,30:5
11,33:9
11,34:9
11,35:2
12,1:3
12,2:3
12,3:7
12,4:4
12,6:3
12,7:9
12,9:7
12,10:6
12,11:7
12,13:4
12,14:1
12,15:7
12,16:1
12,17:4
12,18:1
12,19:9
12,22:7
12,23:9
12,24:4
12,27:12
12,28:3
12,30:12
12,32:7
12,33:2
12,34:2
12,35:5
13,2:1
13,3:11
13,4:8
13,5:4
13,6:1
13,7:5
13,8:4
13,10:10
13,12:4
13,14:3
13,15:3
13,16:3
13,18:3
13,19:5
13,22:11
13,23:5
13,27:8
13,28:1
13,30:8
13,32:3
13,33:6
13,34:6
13,35:1
14,2:2
14,3:8
14,4:5
14,5:1
14,6:2
14,7:8
14,8:1
14,10:7
14,12:1
14,13:3
14,15:6
14,17:3
14,19:8
14,22:8
14,23:8
14,24:3
14,27:11
14,28:2
14,30:11
14,32:6
14,33:3
14,34:3
14,35:4
15,2:4
15,3:14
15,4:11
15,5:7
15,6:4
15,7:2
15,8:7
15,10:13
15,12:7
15,13:3
15,14:6
15,16:6
15,17:3
15,18:6
15,19:2
15,22:14
15,23:2
15,24:3
15,27:5
15,28:4
15,30:5
15,33:9
15,34:9
15,35:2
16,1:2
16,2:2
16,3:8
16,4:5
16,5:1
16,6:2
16,7:8
16,8:1
16,9:8
16,10:7
16,11:6
16,12:1
16,13:3
16,15:6
16,17:3
16,20:3
16,21:11
16,22:8
16,24:3
16,25:11
16,26:3
16,27:11
16,28:2
16,29:3
16,30:11
16,32:6
16,33:3
16,34:3
16,35:4
16,44:6
17,2:1
17,3:11
17,4:8
17,5:4
17,6:1
17,7:5
17,8:4
17,10:10
17,16:3
17,18:3
17,19:5
17,22:11
17,23:5
17,27:8
17,28:1
17,30:8
17,32:3
17,33:6
17,34:6
17,35:1
18,1:2
18,2:2
18,3:8
18,4:5
18,5:1
18,6:2
18,7:8
18,8:1
18,9:8
18,10:7
18,11:6
18,12:1
18,13:3
18,15:6
18,17:3
18,19:8
18,20:3
18,21:11
18,22:8
18,24:3
18,25:11
18,26:3
18,27:11
18,28:2
18,29:3
18,30:11
18,32:6
18,33:3
18,34:3
18,35:4
18,44:6
19,1:6
19,2:6
19,3:16
19,4:13
19,5:9
19,6:6
19,8:9
19,9:16
19,10:15
19,11:2
19,12:9
19,13:5
19,14:8
19,15:2
19,17:5
19,20:5
19,21:3
19,22:16
19,24:5
19,25:3
19,26:11
19,27:3
19,28:6
19,29:11
19,30:3
19,32:2
19,33:11
19,34:11
19,35:4
19,44:2
20,2:1
20,3:11
20,4:8
20,5:4
20,6:1
20,7:5
20,8:4
20,10:10
20,16:3
20,18:3
20,19:5
20,21:8
20,22:11
20,23:5
20,25:8
20,27:8
20,28:1
20,30:8
20,32:3
20,33:6
20,34:6
20,35:1
21,2:9
21,4:16
21,5:12
21,6:9
21,7:3
21,8:12
21,10:18
21,16:11
21,18:11
21,19:3
21,22:19
21,23:3
21,24:8
21,26:14
21,28:9
21,32:5
21,33:14
21,34:14
21,35:7
21,44:5
22,1:10
22,2:10
22,4:3
22,5:7
22,6:10
22,7:16
22,8:7
22,10:1
22,11:14
22,12:7
22,13:11
22,14:8
22,15:14
22,16:8
22,17:11
22,18:8
22,19:16
22,20:11
22,21:19
22,23:16
22,24:11
22,25:19
22,26:5
22,27:19
22,28:10
22,29:5
22,31:14
22,32:14
22,33:5
22,35:12
22,44:14
23,1:6
23,2:6
23,3:16
23,4:13
23,5:9
23,8:9
23,9:16
23,10:15
23,11:2
23,12:9
23,13:5
23,14:8
23,15:2
23,17:5
23,20:5
23,21:3
23,22:16
23,24:5
23,25:3
23,26:11
23,27:3
23,28:6
23,29:11
23,30:3
23,31:2
23,32:2
23,33:11
23,34:11
23,35:4
23,44:2
24,1:1
24,2:1
24,3:11
24,4:8
24,5:4
24,7:5
24,8:4
24,9:11
24,10:10
24,11:3
24,12:4
24,14:3
24,15:3
24,16:3
24,18:3
24,19:5
24,21:8
24,22:11
24,23:5
24,25:8
24,26:6
24,27:8
24,28:1
24,29:6
24,30:8
24,31:3
24,32:3
24,33:6
24,34:6
24,35:1
24,44:3
25,3:19
25,4:16
25,5:12
25,6:9
25,7:3
25,8:12
25,10:18
25,16:11
25,18:11
25,19:3
25,22:19
25,23:3
25,24:8
25,26:14
25,28:9
25,29:14
25,31:5
25,32:5
25,33:14
25,34:14
25,35:7
25,36:3
25,37:3
25,38:12
25,39:7
25,40:7
25,41:3
25,42:3
25,43:7
25,44:5
25,45:12
25,46:16
25,47:16
25,48:16
25,49:12
25,50:18
25,51:5
26,2:5
26,4:2
26,5:2
26,6:5
26,7:11
26,8:2
26,10:4
26,16:3
26,18:3
26,19:11
26,22:5
26,23:11
26,24:6
26,25:14
26,27:14
26,28:5
26,30:14
26,32:9
26,35:7
26,44:9
27,1:9
27,2:9
27,4:16
27,5:12
27,6:9
27,7:3
27,8:12
27,9:19
27,10:18
27,11:5
27,12:12
27,13:8
27,14:11
27,15:5
27,16:11
27,17:8
27,18:11
27,19:3
27,20:8
27,23:3
27,24:8
27,26:14
27,28:9
27,29:14
27,31:5
27,32:5
27,33:14
27,35:7
27,44:5
28,3:10
28,4:7
28,5:3
28,7:6
28,8:3
28,9:10
28,10:9
28,11:4
28,12:3
28,13:1
28,14:2
28,15:4
28,16:2
28,17:1
28,18:2
28,19:6
28,20:1
28,21:9
28,22:10
28,23:6
28,24:1
28,25:9
28,26:5
28,27:9
28,29:5
28,30:9
28,31:4
28,32:4
28,33:5
28,34:5
28,36:12
28,37:12
28,38:3
28,39:2
28,40:2
28,41:12
28,42:12
28,44:4
29,2:5
29,4:2
29,5:2
29,6:5
29,7:11
29,8:2
29,10:4
29,16:3
29,18:3
29,19:11
29,22:5
29,23:11
29,24:6
29,25:14
29,27:14
29,28:5
29,30:14
29,31:9
29,32:9
29,35:7
29,44:9
30,1:9
30,2:9
30,4:16
30,5:12
30,6:9
30,7:3
30,8:12
30,9:19
30,10:18
30,11:5
30,12:12
30,13:8
30,14:11
30,15:5
30,16:11
30,17:8
30,18:11
30,19:3
30,20:8
30,23:3
30,24:8
30,26:14
30,28:9
30,29:14
30,31:5
30,32:5
30,33:14
30,34:14
30,35:7
30,44:5
31,2:4
31,4:11
31,5:7
31,7:2
31,8:7
31,10:13
31,22:14
31,25:5
31,27:5
31,28:4
31,30:5
31,33:9
31,34:9
31,35:2
31,36:8
32,1:4
32,2:4
32,3:14
32,4:11
32,5:7
32,6:4
32,7:2
32,8:7
32,9:14
32,10:13
32,12:7
32,13:3
32,14:6
32,16:6
32,17:3
32,18:6
32,19:2
32,20:3
32,21:5
32,22:14
32,23:2
32,24:3
32,25:5
32,26:9
32,27:5
32,29:9
32,30:5
32,33:9
32,34:9
32,35:2
32,36:8
32,37:8
32,38:7
32,39:2
32,40:2
32,41:8
32,42:8
32,43:2
32,45:7
33,1:5
33,2:5
33,3:5
33,4:2
33,5:2
33,6:5
33,7:11
33,8:2
33,9:5
33,10:4
33,11:9
33,12:2
33,13:6
33,14:3
33,15:9
33,16:3
33,17:6
33,18:3
33,19:11
33,20:6
33,21:14
33,22:5
33,23:11
33,24:6
33,25:14
33,27:14
33,30:14
33,31:9
33,32:9
33,35:7
33,36:17
33,37:17
33,38:2
33,39:7
33,40:7
33,41:17
33,42:17
33,44:9
34,1:5
34,2:5
34,4:2
34,5:2
34,6:5
34,7:11
34,8:2
34,9:5
34,10:4
34,11:9
34,12:2
34,13:6
34,14:3
34,15:9
34,16:3
34,17:6
34,18:3
34,19:11
34,20:6
34,21:14
34,23:11
34,24:6
34,25:14
34,28:5
34,31:9
34,32:9
34,35:7
34,36:17
34,44:9
35,1:2
35,2:2
35,3:12
35,4:9
35,5:5
35,6:2
35,7:4
35,8:5
35,9:12
35,10:11
35,11:2
35,12:5
35,13:1
35,14:4
35,15:2
35,16:4
35,17:1
35,18:4
35,19:4
35,20:1
35,21:7
35,22:12
35,23:4
35,24:1
35,25:7
35,26:7
35,27:7
35,29:7
35,30:7
35,31:2
35,32:2
35,34:7
35,36:10
35,37:10
35,38:5
35,41:10
35,42:10
35,44:2
36,2:12
36,4:19
36,7:6
36,8:15
36,10:21
36,25:3
36,28:12
36,32:8
36,33:17
36,35:10
36,38:15
36,44:8
37,2:12
37,4:19
37,7:6
37,8:15
37,10:21
37,25:3
37,28:12
37,32:8
37,33:17
37,35:10
37,38:15
37,39:10
37,40:10
37,44:8
38,4:4
38,7:9
38,10:6
38,28:3
38,32:7
38,33:2
38,35:5
38,37:15
38,39:5
38,40:5
38,41:15
38,42:15
38,43:5
38,44:7
38,46:4
38,47:4
38,48:4
38,50:6
38,51:17
38,52:17
39,2:2
39,4:9
39,7:4
39,8:5
39,10:11
39,25:7
39,28:2
39,32:2
39,33:7
39,38:5
39,41:10
39,42:10
39,44:2
40,2:2
40,4:9
40,7:4
40,8:5
40,10:11
40,25:7
40,28:2
40,32:2
40,33:7
40,38:5
40,41:10
40,42:10
40,44:2
41,2:12
41,4:19
41,7:6
41,8:15
41,10:21
41,25:3
41,28:12
41,32:8
41,33:17
41,35:10
41,38:15
41,39:10
41,40:10
41,44:8
42,2:12
42,4:19
42,7:6
42,8:15
42,10:21
42,25:3
42,28:12
42,32:8
42,33:17
42,35:10
42,38:15
42,39:10
42,40:10
42,43:10
42,44:8
43,2:2
43,4:9
43,8:5
43,10:11
43,25:7
43,32:2
43,38:5
43,44:2
43,45:5
44,2:4
44,4:11
44,5:7
44,6:4
44,7:2
44,10:13
44,16:6
44,18:6
44,19:2
44,22:14
44,23:2
44,24:3
44,25:5
44,26:9
44,27:5
44,28:4
44,29:9
44,30:5
44,33:9
44,34:9
44,35:2
44,36:8
44,37:8
44,38:7
44,39:2
44,40:2
44,41:8
44,42:8
44,43:2
44,45:7
45,2:3
45,4:4
45,10:6
45,25:12
45,46:4
45,48:4
46,2:7
46,10:2
46,25:16
46,38:4
46,49:4
46,50:2
47,2:7
47,10:2
47,25:16
47,38:4
47,49:4
47,50:2
47,51:21
48,2:7
48,10:2
48,25:16
48,38:4
48,49:4
48,50:2
48,51:21
48,52:21
48,53:21
48,54:19
48,55:19
48,56:19
49,2:3
49,4:4
49,10:6
49,25:12
49,46:4
49,47:4
49,48:4
49,50:6
49,51:17
49,52:17
49,53:17
49,54:15
49,55:15
49,56:15
49,57:6
49,58:6
50,2:9
50,4:2
50,25:18
50,38:6
50,47:2
50,48:2
50,49:6
50,51:23
50,52:23
50,53:23
50,54:21
50,55:21
50,56:21
51,2:14
51,4:21
51,10:23
51,25:5
51,38:17
51,48:21
51,49:17
51,50:23
52,4:21
52,10:23
52,48:21
52,49:17
52,50:23
53,4:21
53,10:23
53,48:21
53,49:17
53,50:23
53,54:2
54,4:19
54,10:21
54,48:19
54,49:15
54,50:21
55,4:19
55,10:21
55,49:15
55,50:21
55,57:21
56,4:19
56,10:21
56,48:19
56,49:15
56,50:21
56,57:21
57,4:2
57,49:6
58,4:2

<setup times backward>
1,7:6
1,19:6
1,23:6
1,24:1
1,27:9
1,30:9
1,32:4
1,35:2
2,7:6
2,11:4
2,13:1
2,15:4
2,17:1
2,19:6
2,20:1
2,21:9
2,23:6
2,24:1
2,27:9
2,30:9
2,31:4
2,32:4
2,35:2
2,36:12
2,37:12
2,39:2
2,40:2
2,41:12
2,42:12
2,43:2
2,44:4
2,51:14
3,1:10
3,2:10
3,4:3
3,5:7
3,6:10
3,7:16
3,8:7
3,10:1
3,11:14
3,12:7
3,13:11
3,14:8
3,15:14
3,16:8
3,17:11
3,18:8
3,19:16
3,20:11
3,23:16
3,24:11
3,25:19
3,28:10
3,32:14
3,33:5
3,35:12
4,1:7
4,2:7
4,5:4
4,6:7
4,7:13
4,8:4
4,11:11
4,12:4
4,13:8
4,14:5
4,15:11
4,16:5
4,17:8
4,18:5
4,19:13
4,20:8
4,21:16
4,23:13
4,24:8
4,25:16
4,26:2
4,27:16
4,28:7
4,29:2
4,30:16
4,31:11
4,32:11
4,33:2
4,34:2
4,35:9
4,36:19
4,37:19
4,38:4
4,39:9
4,40:9
4,41:19
4,42:19
4,43:9
4,44:11
4,45:4
4,49:4
4,51:21
4,52:21
4,53:21
4,54:19
4,55:19
4,56:19
5,1:3
5,2:3
5,6:3
5,7:9
5,11:7
5,13:4
5,14:1
5,15:7
5,16:1
5,17:4
5,18:1
5,19:9
5,20:4
5,21:12
5,23:9
5,24:4
5,25:12
5,27:12
5,28:3
5,30:12
5,31:7
5,32:7
5,35:5
5,44:7
6,7:6
6,11:4
6,13:1
6,15:4
6,17:1
6,19:6
6,20:1
6,21:9
6,25:9
6,27:9
6,30:9
6,32:4
6,35:2
6,44:4
7,21:3
7,25:3
7,27:3
7,30:3
7,36:6
7,37:6
7,41:6
7,42:6
8,1:3
8,2:3
8,6:3
8,7:9
8,11:7
8,13:4
8,14:1
8,15:7
8,16:1
8,17:4
8,18:1
8,19:9
8,20:4
8,21:12
8,23:9
8,24:4
8,25:12
8,27:12
8,28:3
8,30:12
8,31:7
8,32:7
8,35:5
8,36:15
8,37:15
8,39:5
8,40:5
8,41:15
8,42:15
8,43:5
9,1:10
9,2:10
9,4:3
9,5:7
9,6:10
9,7:16
9,8:7
9,10:1
9,12:7
9,16:8
9,18:8
9,19:16
9,23:16
9,24:11
9,27:19
9,28:10
9,30:19
9,32:14
9,33:5
9,34:5
9,35:12
10,1:9
10,2:9
10,4:2
10,5:6
10,6:9
10,7:15
10,8:6
10,11:13
10,12:6
10,13:10
10,14:7
10,15:13
10,16:7
10,17:10
10,18:7
10,19:15
10,20:10
10,21:18
10,23:15
10,24:10
10,25:18
10,26:4
10,27:18
10,28:9
10,29:4
10,30:18
10,31:13
10,32:13
10,33:4
10,34:4
10,35:11
10,36:21
10,37:21
10,38:6
10,39:11
10,40:11
10,41:21
10,42:21
10,43:11
10,44:13
10,45:6
10,46:2
10,47:2
10,48:2
10,49:6
10,51:23
10,52:23
10,53:23
10,54:21
10,55:21
10,56:21
11,7:2
11,19:2
11,23:2
11,27:5
11,30:5
12,1:3
12,2:3
12,6:3
12,7:9
12,11:7
12,13:4
12,14:1
12,15:7
12,16:1
12,18:1
12,19:9
12,23:9
12,24:4
12,27:12
12,28:3
12,30:12
12,32:7
12,35:5
13,7:5
13,11:3
13,15:3
13,19:5
13,23:5
13,27:8
13,30:8
13,32:3
13,35:1
14,1:2
14,2:2
14,6:2
14,7:8
14,11:6
14,13:3
14,15:6
14,19:8
14,23:8
14,24:3
14,27:11
14,28:2
14,30:11
14,32:6
14,35:4
15,7:2
15,19:2
15,23:2
15,27:5
15,30:5
16,1:2
16,2:2
16,6:2
16,7:8
16,11:6
16,13:3
16,15:6
16,17:3
16,20:3
16,21:11
16,24:3
16,25:11
16,27:11
16,28:2
16,30:11
16,32:6
16,35:4
16,44:6
17,7:5
17,11:3
17,15:3
17,19:5
17,23:5
17,27:8
17,30:8
17,32:3
17,35:1
18,1:2
18,2:2
18,6:2
18,7:8
18,11:6
18,13:3
18,15:6
18,17:3
18,20:3
18,21:11
18,24:3
18,25:11
18,27:11
18,28:2
18,30:11
18,32:6
18,35:4
18,44:6
19,21:3
19,25:3
19,27:3
19,30:3
20,7:5
20,11:3
20,15:3
20,19:5
20,23:5
20,27:8
20,30:8
20,32:3
20,35:1
22,1:10
22,2:10
22,4:3
22,5:7
22,6:10
22,7:16
22,8:7
22,10:1
22,11:14
22,12:7
22,13:11
22,14:8
22,15:14
22,16:8
22,17:11
22,18:8
22,19:16
22,20:11
22,21:19
22,23:16
22,24:11
22,25:19
22,26:5
22,28:10
22,29:5
22,31:14
22,32:14
22,33:5
22,35:12
22,44:14
23,21:3
23,25:3
23,27:3
23,30:3
24,7:5
24,11:3
24,15:3
24,19:5
24,21:8
24,23:5
24,25:8
24,27:8
24,30:8
24,32:3
24,35:1
24,44:3
25,36:3
25,37:3
25,41:3
25,42:3
25,51:5
26,1:5
26,2:5
26,5:2
26,6:5
26,7:11
26,8:2
26,11:9
26,12:2
26,13:6
26,14:3
26,15:9
26,16:3
26,17:6
26,18:3
26,19:11
26,20:6
26,21:14
26,23:11
26,24:6
26,25:14
26,27:14
26,28:5
26,30:14
26,32:9
26,35:7
26,44:9
28,7:6
28,11:4
28,13:1
28,15:4
28,17:1
28,19:6
28,20:1
28,21:9
28,23:6
28,24:1
28,25:9
28,27:9
28,30:9
28,31:4
28,36:12
28,37:12
28,39:2
28,40:2
28,41:12
28,42:12
28,44:4
29,1:5
29,2:5
29,5:2
29,6:5
29,7:11
29,8:2
29,11:9
29,12:2
29,13:6
29,14:3
29,15:9
29,16:3
29,17:6
29,18:3
29,19:11
29,20:6
29,21:14
29,23:11
29,24:6
29,25:14
29,27:14
29,28:5
29,30:14
29,32:9
29,35:7
29,44:9
31,7:2
31,19:2
31,21:5
31,23:2
31,25:5
31,27:5
31,30:5
32,7:2
32,19:2
32,21:5
32,23:2
32,25:5
32,27:5
32,30:5
32,36:8
32,37:8
32,41:8
32,42:8
33,1:5
33,2:5
33,5:2
33,6:5
33,7:11
33,8:2
33,11:9
33,12:2
33,13:6
33,14:3
33,15:9
33,16:3
33,17:6
33,18:3
33,19:11
33,20:6
33,21:14
33,23:11
33,24:6
33,25:14
33,27:14
33,28:5
33,30:14
33,31:9
33,32:9
33,36:17
33,37:17
33,38:2
33,39:7
33,40:7
33,41:17
33,42:17
33,44:9
34,1:5
34,2:5
34,5:2
34,6:5
34,7:11
34,8:2
34,11:9
34,12:2
34,13:6
34,14:3
34,15:9
34,16:3
34,17:6
34,18:3
34,19:11
34,20:6
34,21:14
34,23:11
34,24:6
34,25:14
34,27:14
34,28:5
34,30:14
34,31:9
34,32:9
34,35:7
34,44:9
35,7:4
35,11:2
35,15:2
35,19:4
35,21:7
35,23:4
35,25:7
35,27:7
35,30:7
35,31:2
35,32:2
35,36:10
35,37:10
35,41:10
35,42:10
35,44:2
38,1:3
38,2:3
38,6:3
38,7:9
38,11:7
38,13:4
38,14:1
38,15:7
38,16:1
38,17:4
38,18:1
38,19:9
38,20:4
38,21:12
38,23:9
38,24:4
38,25:12
38,27:12
38,28:3
38,30:12
38,31:7
38,32:7
38,35:5
38,36:15
38,37:15
38,39:5
38,40:5
38,41:15
38,42:15
38,43:5
38,44:7
38,51:17
39,7:4
39,11:2
39,15:2
39,19:4
39,21:7
39,23:4
39,25:7
39,27:7
39,30:7
39,31:2
39,32:2
39,36:10
39,37:10
39,41:10
39,42:10
39,44:2
40,7:4
40,11:2
40,15:2
40,19:4
40,21:7
40,23:4
40,25:7
40,27:7
40,30:7
40,31:2
40,32:2
40,36:10
40,37:10
40,41:10
40,42:10
40,44:2
43,7:4
43,11:2
43,15:2
43,19:4
43,21:7
43,23:4
43,25:7
43,27:7
43,30:7
43,31:2
43,32:2
43,36:10
43,37:10
43,41:10
43,42:10
43,44:2
44,7:2
44,19:2
44,21:5
44,23:2
44,25:5
44,27:5
44,30:5
44,36:8
44,37:8
44,41:8
44,42:8
45,1:3
45,2:3
45,6:3
45,7:9
45,11:7
45,13:4
45,14:1
45,15:7
45,16:1
45,17:4
45,18:1
45,19:9
45,20:4
45,21:12
45,23:9
45,24:4
45,25:12
45,27:12
45,28:3
45,30:12
45,31:7
45,32:7
45,35:5
45,36:15
45,37:15
45,39:5
45,40:5
45,41:15
45,42:15
45,43:5
45,44:7
46,1:7
46,2:7
46,5:4
46,6:7
46,7:13
46,8:4
46,11:11
46,12:4
46,13:8
46,14:5
46,15:11
46,16:5
46,17:8
46,18:5
46,19:13
46,20:8
46,21:16
46,23:13
46,24:8
46,25:16
46,26:2
46,27:16
46,28:7
46,29:2
46,30:16
46,31:11
46,32:11
46,33:2
46,34:2
46,35:9
46,36:19
46,37:19
46,38:4
46,39:9
46,40:9
46,41:19
46,42:19
46,43:9
46,44:11
46,45:4
46,49:4
47,1:7
47,2:7
47,5:4
47,6:7
47,7:13
47,8:4
47,11:11
47,12:4
47,13:8
47,14:5
47,15:11
47,16:5
47,17:8
47,18:5
47,19:13
47,20:8
47,21:16
47,23:13
47,24:8
47,25:16
47,26:2
47,27:16
47,28:7
47,29:2
47,30:16
47,31:11
47,32:11
47,33:2
47,34:2
47,35:9
47,36:19
47,37:19
47,38:4
47,39:9
47,40:9
47,41:19
47,42:19
47,43:9
47,44:11
47,45:4
47,49:4
48,1:7
48,2:7
48,5:4
48,6:7
48,7:13
48,8:4
48,11:11
48,12:4
48,13:8
48,14:5
48,15:11
48,16:5
48,17:8
48,18:5
48,19:13
48,20:8
48,21:16
48,23:13
48,24:8
48,25:16
48,26:2
48,27:16
48,28:7
48,29:2
48,30:16
48,31:11
48,32:11
48,33:2
48,34:2
48,35:9
48,36:19
48,37:19
48,38:4
48,39:9
48,40:9
48,41:19
48,42:19
48,43:9
48,44:11
48,45:4
48,49:4
48,51:21
48,52:21
48,53:21
48,54:19
48,56:19
49,1:3
49,2:3
49,6:3
49,7:9
49,11:7
49,13:4
49,14:1
49,15:7
49,16:1
49,17:4
49,18:1
49,19:9
49,20:4
49,21:12
49,23:9
49,24:4
49,25:12
49,27:12
49,28:3
49,30:12
49,31:7
49,32:7
49,35:5
49,36:15
49,37:15
49,39:5
49,40:5
49,41:15
49,42:15
49,43:5
49,44:7
49,51:17
49,52:17
49,53:17
49,54:15
49,55:15
49,56:15
50,1:9
50,2:9
50,4:2
50,5:6
50,6:9
50,7:15
50,8:6
50,11:13
50,12:6
50,13:10
50,14:7
50,15:13
50,16:7
50,17:10
50,18:7
50,19:15
50,20:10
50,21:18
50,23:15
50,24:10
50,25:18
50,26:4
50,27:18
50,28:9
50,29:4
50,30:18
50,31:13
50,32:13
50,33:4
50,34:4
50,35:11
50,36:21
50,37:21
50,38:6
50,39:11
50,40:11
50,41:21
50,42:21
50,43:11
50,44:13
50,45:6
50,46:2
50,47:2
50,48:2
50,49:6
50,51:23
50,52:23
50,53:23
50,54:21
50,55:21
50,56:21
54,51:2
54,52:2
54,53:2
55,51:2
55,52:2
55,53:2
56,51:2
56,52:2
56,53:2
57,1:9
57,2:9
57,4:2
57,5:6
57,6:9
57,7:15
57,8:6
57,11:13
57,12:6
57,13:10
57,14:7
57,15:13
57,16:7
57,17:10
57,18:7
57,19:15
57,20:10
57,21:18
57,23:15
57,24:10
57,25:18
57,26:4
57,27:18
57,28:9
57,29:4
57,30:18
57,31:13
57,32:13
57,33:4
57,34:4
57,35:11
57,36:21
57,37:21
57,38:6
57,39:11
57,40:11
57,41:21
57,42:21
57,43:11
57,44:13
57,45:6
57,46:2
57,47:2
57,48:2
57,49:6
57,51:23
57,52:23
57,53:23
57,54:21
57,55:21
57,56:21
58,1:9
58,2:9
58,4:2
58,5:6
58,6:9
58,7:15
58,8:6
58,11:13
58,12:6
58,13:10
58,14:7
58,15:13
58,16:7
58,17:10
58,18:7
58,19:15
58,20:10
58,21:18
58,23:15
58,24:10
58,25:18
58,26:4
58,27:18
58,28:9
58,29:4
58,30:18
58,31:13
58,32:13
58,33:4
58,34:4
58,35:11
58,36:21
58,37:21
58,38:6
58,39:11
58,40:11
58,41:21
58,42:21
58,43:11
58,44:13
58,45:6
58,46:2
58,47:2
58,48:2
58,49:6
58,51:23
58,52:23
58,53:23
58,54:21
58,55:21
58,56:21

<end>

<optimal SALBP-1 value>
17


<rand seed>
467321153

<Lower Bounds>
Lm1=17
Lms1=17
Lm2=7
Lm3=12
Lm4=17
Best=17

<Optimal Stations (Iterations: 10)>
24
